NAME ./bmilplib/bmilplib_10_4
OBJSENSE 
 MAX
ROWS
 N cost
 L l0
 L l1
 L l2
 L l3
 L f0
 L f1
 L f2
 L f3
COLUMNS
 x0 cost 22
 x0 l0 0
 x0 l1 6
 x0 l2 7
 x0 l3 8
 x0 f0 9
 x0 f1 1
 x0 f2 10
 x0 f3 5
 x1 cost -39
 x1 l0 9
 x1 l1 10
 x1 l2 8
 x1 l3 6
 x1 f0 7
 x1 f1 10
 x1 f2 3
 x1 f3 4
 x2 cost -39
 x2 l0 10
 x2 l1 6
 x2 l2 0
 x2 l3 1
 x2 f0 5
 x2 f1 8
 x2 f2 9
 x2 f3 1
 x3 cost 14
 x3 l0 9
 x3 l1 5
 x3 l2 9
 x3 l3 2
 x3 f0 1
 x3 f1 3
 x3 f2 0
 x3 f3 5
 x4 cost -17
 x4 l0 6
 x4 l1 6
 x4 l2 0
 x4 l3 6
 x4 f0 3
 x4 f1 1
 x4 f2 2
 x4 f3 9
 x5 cost 16
 x5 l0 3
 x5 l1 0
 x5 l2 5
 x5 l3 2
 x5 f0 7
 x5 f1 5
 x5 f2 10
 x5 f3 1
 x6 cost 25
 x6 l0 1
 x6 l1 2
 x6 l2 1
 x6 l3 2
 x6 f0 8
 x6 f1 8
 x6 f2 6
 x6 f3 2
 x7 cost 8
 x7 l0 0
 x7 l1 6
 x7 l2 3
 x7 l3 5
 x7 f0 6
 x7 f1 3
 x7 f2 1
 x7 f3 2
 x8 cost 24
 x8 l0 7
 x8 l1 5
 x8 l2 5
 x8 l3 4
 x8 f0 9
 x8 f1 0
 x8 f2 2
 x8 f3 0
 x9 cost -27
 x9 l0 1
 x9 l1 5
 x9 l2 9
 x9 l3 9
 x9 f0 4
 x9 f1 0
 x9 f2 9
 x9 f3 2
 y0 cost 24
 y0 l0 2
 y0 l1 2
 y0 l2 6
 y0 l3 7
 y0 f0 1
 y0 f1 3
 y0 f2 5
 y0 f3 1
 y1 cost 48
 y1 l0 4
 y1 l1 2
 y1 l2 10
 y1 l3 0
 y1 f0 10
 y1 f1 3
 y1 f2 3
 y1 f3 0
 y2 cost 37
 y2 l0 1
 y2 l1 1
 y2 l2 1
 y2 l3 6
 y2 f0 3
 y2 f1 0
 y2 f2 5
 y2 f3 8
 y3 cost -42
 y3 l0 6
 y3 l1 0
 y3 l2 10
 y3 l3 8
 y3 f0 6
 y3 f1 0
 y3 f2 0
 y3 f3 8
 y4 cost -13
 y4 l0 8
 y4 l1 0
 y4 l2 9
 y4 l3 10
 y4 f0 9
 y4 f1 5
 y4 f2 1
 y4 f3 9
 y5 cost -13
 y5 l0 10
 y5 l1 9
 y5 l2 8
 y5 l3 5
 y5 f0 3
 y5 f1 3
 y5 f2 8
 y5 f3 0
 y6 cost 19
 y6 l0 1
 y6 l1 4
 y6 l2 1
 y6 l3 0
 y6 f0 0
 y6 f1 7
 y6 f2 6
 y6 f3 5
 y7 cost 10
 y7 l0 10
 y7 l1 3
 y7 l2 3
 y7 l3 3
 y7 f0 8
 y7 f1 7
 y7 f2 8
 y7 f3 3
 y8 cost 29
 y8 l0 5
 y8 l1 7
 y8 l2 0
 y8 l3 9
 y8 f0 7
 y8 f1 6
 y8 f2 4
 y8 f3 0
 y9 cost -13
 y9 l0 6
 y9 l1 9
 y9 l2 3
 y9 l3 4
 y9 f0 8
 y9 f1 3
 y9 f2 6
 y9 f3 8
RHS
 rhs l0 35
 rhs l1 47
 rhs l2 96
 rhs l3 63
 rhs f0 20
 rhs f1 22
 rhs f2 65
 rhs f3 59
BOUNDS
 LI  bound  x0  0.0000000
 UI  bound  x0 10
 LI  bound  x1  0.0000000
 UI  bound  x1 10
 LI  bound  x2  0.0000000
 UI  bound  x2 10
 LI  bound  x3  0.0000000
 UI  bound  x3 10
 LI  bound  x4  0.0000000
 UI  bound  x4 10
 LI  bound  x5  0.0000000
 UI  bound  x5 10
 LI  bound  x6  0.0000000
 UI  bound  x6 10
 LI  bound  x7  0.0000000
 UI  bound  x7 10
 LI  bound  x8  0.0000000
 UI  bound  x8 10
 LI  bound  x9  0.0000000
 UI  bound  x9 10
 LI  bound  y0  0.0000000
 LI  bound  y1  0.0000000
 LI  bound  y2  0.0000000
 LI  bound  y6  0.0000000
 LI  bound  y7  0.0000000
 LI  bound  y8  0.0000000
ENDATA
